language Essence 1.3

letting blksize_delta be
        function(1 --> 8, 2 --> 10, 3 --> 8, 4 --> 8, 5 --> 8, 6 --> 8, 7 --> 8, 8 --> 8, 9 --> 9, 10 --> 8, 11 --> 8,
                 12 --> 8, 13 --> 8, 14 --> 8, 15 --> 8, 16 --> 8, 17 --> 8, 18 --> 8, 19 --> 8, 20 --> 8)
letting maxcars be
        function(1 --> 10, 2 --> 10, 3 --> 10, 4 --> 10, 5 --> 10, 6 --> 10, 7 --> 10, 8 --> 10, 9 --> 10, 10 --> 10,
                 11 --> 10, 12 --> 10, 13 --> 10, 14 --> 10, 15 --> 10, 16 --> 10, 17 --> 10, 18 --> 10, 19 --> 10,
                 20 --> 10)
letting n_cars be 218
letting n_classes be 33
letting n_options be 20
letting quantity be
        function(1 --> 6, 2 --> 6, 3 --> 6, 4 --> 6, 5 --> 6, 6 --> 6, 7 --> 6, 8 --> 6, 9 --> 6, 10 --> 6, 11 --> 6,
                 12 --> 13, 13 --> 6, 14 --> 6, 15 --> 6, 16 --> 6, 17 --> 6, 18 --> 6, 19 --> 6, 20 --> 19, 21 --> 6,
                 22 --> 6, 23 --> 6, 24 --> 6, 25 --> 6, 26 --> 6, 27 --> 6, 28 --> 6, 29 --> 6, 30 --> 6, 31 --> 6,
                 32 --> 6, 33 --> 6)
letting usage be
        relation((1, 2), (1, 5), (1, 10), (1, 13), (1, 18), (2, 4), (2, 10), (3, 11), (4, 4), (4, 10), (4, 11), (4, 15),
                 (5, 4), (6, 13), (6, 15), (7, 15), (7, 16), (7, 20), (8, 20), (9, 6), (10, 20), (11, 14), (12, 3),
                 (12, 9), (13, 8), (14, 4), (14, 7), (15, 1), (15, 6), (15, 8), (16, 7), (16, 16), (17, 8), (18, 5),
                 (18, 10), (18, 11), (18, 15), (18, 19), (19, 14), (20, 4), (20, 7), (20, 9), (20, 13), (20, 20),
                 (21, 1), (21, 14), (21, 19), (22, 6), (22, 18), (22, 20), (23, 3), (23, 19), (24, 19), (25, 4),
                 (25, 12), (25, 15), (26, 8), (27, 3), (27, 4), (27, 15), (28, 14), (28, 20), (29, 8), (29, 15),
                 (29, 17), (29, 19), (30, 6), (30, 7), (30, 13), (31, 19), (32, 20), (33, 2), (33, 5), (33, 18))
$ Visualisation for usage
$  1  2
$  1  5
$  1 10
$  1 13
$  1 18
$  2  4
$  2 10
$  3 11
$  4  4
$  4 10
$  4 11
$  4 15
$  5  4
$  6 13
$  6 15
$  7 15
$  7 16
$  7 20
$  8 20
$  9  6
$ 10 20
$ 11 14
$ 12  3
$ 12  9
$ 13  8
$ 14  4
$ 14  7
$ 15  1
$ 15  6
$ 15  8
$ 16  7
$ 16 16
$ 17  8
$ 18  5
$ 18 10
$ 18 11
$ 18 15
$ 18 19
$ 19 14
$ 20  4
$ 20  7
$ 20  9
$ 20 13
$ 20 20
$ 21  1
$ 21 14
$ 21 19
$ 22  6
$ 22 18
$ 22 20
$ 23  3
$ 23 19
$ 24 19
$ 25  4
$ 25 12
$ 25 15
$ 26  8
$ 27  3
$ 27  4
$ 27 15
$ 28 14
$ 28 20
$ 29  8
$ 29 15
$ 29 17
$ 29 19
$ 30  6
$ 30  7
$ 30 13
$ 31 19
$ 32 20
$ 33  2
$ 33  5
$ 33 18

